20
11 16
11 3
11 18
11 8
11 15
16 13
16 4
16 19
16 6
5 9
5 18
5 1
5 0
5 7
9 17
9 13
9 19
9 12
4 7
4 12
4 0
4 3
7 15
7 2
7 8
8 13
8 15
8 17
13 14
13 6
3 14
3 6
3 19
1 17
1 2
1 10
1 19
17 15
17 18
12 10
12 14
12 6
0 10
0 18
0 19
10 18
10 2
14 15
14 2
2 6
